p cnf 386 460
-2 10 20 21 22 0
-2 10 20 21 -22 0
-2 10 20 -21 23 0
-2 10 20 -21 -23 0
-6 -13 19 24 25 0
-6 -13 19 24 -25 0
-6 -13 19 -24 26 0
-6 -13 19 -24 -26 0
15 20 16 27 28 0
15 20 16 27 -28 0
15 20 16 -27 29 0
15 20 16 -27 -29 0
15 2 10 30 31 0
15 2 10 30 -31 0
15 2 10 -30 32 0
15 2 10 -30 -32 0
-15 -19 2 33 34 0
-15 -19 2 33 -34 0
-15 -19 2 -33 35 0
-15 -19 2 -33 -35 0
-14 13 16 36 37 0
-14 13 16 36 -37 0
-14 13 16 -36 38 0
-14 13 16 -36 -38 0
-16 9 -17 39 40 0
-16 9 -17 39 -40 0
-16 9 -17 -39 41 0
-16 9 -17 -39 -41 0
-1 16 -11 42 43 0
-1 16 -11 42 -43 0
-1 16 -11 -42 44 0
-1 16 -11 -42 -44 0
-5 16 14 45 46 0
-5 16 14 45 -46 0
-5 16 14 -45 47 0
-5 16 14 -45 -47 0
20 -17 2 48 49 0
20 -17 2 48 -49 0
20 -17 2 -48 50 0
20 -17 2 -48 -50 0
2 3 15 51 52 0
2 3 15 51 -52 0
2 3 15 -51 53 0
2 3 15 -51 -53 0
-14 -2 4 54 55 0
-14 -2 4 54 -55 0
-14 -2 4 -54 56 0
-14 -2 4 -54 -56 0
-11 -4 2 57 58 0
-11 -4 2 57 -58 0
-11 -4 2 -57 59 0
-11 -4 2 -57 -59 0
-8 9 -20 60 61 0
-8 9 -20 60 -61 0
-8 9 -20 -60 62 0
-8 9 -20 -60 -62 0
-7 -9 1 63 64 0
-7 -9 1 63 -64 0
-7 -9 1 -63 65 0
-7 -9 1 -63 -65 0
-18 2 -11 66 67 0
-18 2 -11 66 -67 0
-18 2 -11 -66 68 0
-18 2 -11 -66 -68 0
2 -1 -19 69 70 0
2 -1 -19 69 -70 0
2 -1 -19 -69 71 0
2 -1 -19 -69 -71 0
-10 -7 16 72 73 0
-10 -7 16 72 -73 0
-10 -7 16 -72 74 0
-10 -7 16 -72 -74 0
-16 -6 18 75 76 0
-16 -6 18 75 -76 0
-16 -6 18 -75 77 0
-16 -6 18 -75 -77 0
-14 -3 -16 78 79 0
-14 -3 -16 78 -79 0
-14 -3 -16 -78 80 0
-14 -3 -16 -78 -80 0
3 16 13 81 82 0
3 16 13 81 -82 0
3 16 13 -81 83 0
3 16 13 -81 -83 0
-9 -3 -8 84 85 0
-9 -3 -8 84 -85 0
-9 -3 -8 -84 86 0
-9 -3 -8 -84 -86 0
-4 5 14 87 88 0
-4 5 14 87 -88 0
-4 5 14 -87 89 0
-4 5 14 -87 -89 0
10 9 2 90 91 0
10 9 2 90 -91 0
10 9 2 -90 92 0
10 9 2 -90 -92 0
-19 7 -5 93 94 0
-19 7 -5 93 -94 0
-19 7 -5 -93 95 0
-19 7 -5 -93 -95 0
15 -1 -8 96 97 0
15 -1 -8 96 -97 0
15 -1 -8 -96 98 0
15 -1 -8 -96 -98 0
-17 -20 4 99 100 0
-17 -20 4 99 -100 0
-17 -20 4 -99 101 0
-17 -20 4 -99 -101 0
15 4 -16 102 103 0
15 4 -16 102 -103 0
15 4 -16 -102 104 0
15 4 -16 -102 -104 0
19 -15 -2 105 106 0
19 -15 -2 105 -106 0
19 -15 -2 -105 107 0
19 -15 -2 -105 -107 0
-3 -6 -15 108 109 0
-3 -6 -15 108 -109 0
-3 -6 -15 -108 110 0
-3 -6 -15 -108 -110 0
-10 -12 9 111 112 0
-10 -12 9 111 -112 0
-10 -12 9 -111 113 0
-10 -12 9 -111 -113 0
-14 17 6 114 115 0
-14 17 6 114 -115 0
-14 17 6 -114 116 0
-14 17 6 -114 -116 0
-20 2 -8 117 118 0
-20 2 -8 117 -118 0
-20 2 -8 -117 119 0
-20 2 -8 -117 -119 0
-15 8 16 120 121 0
-15 8 16 120 -121 0
-15 8 16 -120 122 0
-15 8 16 -120 -122 0
14 12 -1 123 124 0
14 12 -1 123 -124 0
14 12 -1 -123 125 0
14 12 -1 -123 -125 0
-19 -14 4 126 127 0
-19 -14 4 126 -127 0
-19 -14 4 -126 128 0
-19 -14 4 -126 -128 0
10 -9 -15 129 130 0
10 -9 -15 129 -130 0
10 -9 -15 -129 131 0
10 -9 -15 -129 -131 0
6 -17 -1 132 133 0
6 -17 -1 132 -133 0
6 -17 -1 -132 134 0
6 -17 -1 -132 -134 0
15 -7 -11 135 136 0
15 -7 -11 135 -136 0
15 -7 -11 -135 137 0
15 -7 -11 -135 -137 0
19 4 -17 138 139 0
19 4 -17 138 -139 0
19 4 -17 -138 140 0
19 4 -17 -138 -140 0
6 -19 15 141 142 0
6 -19 15 141 -142 0
6 -19 15 -141 143 0
6 -19 15 -141 -143 0
-11 -1 -18 144 145 0
-11 -1 -18 144 -145 0
-11 -1 -18 -144 146 0
-11 -1 -18 -144 -146 0
-3 13 -4 147 148 0
-3 13 -4 147 -148 0
-3 13 -4 -147 149 0
-3 13 -4 -147 -149 0
-13 -8 10 150 151 0
-13 -8 10 150 -151 0
-13 -8 10 -150 152 0
-13 -8 10 -150 -152 0
18 4 -3 153 154 0
18 4 -3 153 -154 0
18 4 -3 -153 155 0
18 4 -3 -153 -155 0
-11 -9 12 156 157 0
-11 -9 12 156 -157 0
-11 -9 12 -156 158 0
-11 -9 12 -156 -158 0
20 11 16 159 160 0
20 11 16 159 -160 0
20 11 16 -159 161 0
20 11 16 -159 -161 0
9 5 -7 162 163 0
9 5 -7 162 -163 0
9 5 -7 -162 164 0
9 5 -7 -162 -164 0
-18 -13 17 165 166 0
-18 -13 17 165 -166 0
-18 -13 17 -165 167 0
-18 -13 17 -165 -167 0
-2 -20 -10 168 169 0
-2 -20 -10 168 -169 0
-2 -20 -10 -168 170 0
-2 -20 -10 -168 -170 0
-5 3 -18 171 172 0
-5 3 -18 171 -172 0
-5 3 -18 -171 173 0
-5 3 -18 -171 -173 0
-8 4 14 174 175 0
-8 4 14 174 -175 0
-8 4 14 -174 176 0
-8 4 14 -174 -176 0
-4 -10 8 177 178 0
-4 -10 8 177 -178 0
-4 -10 8 -177 179 0
-4 -10 8 -177 -179 0
11 6 8 180 181 0
11 6 8 180 -181 0
11 6 8 -180 182 0
11 6 8 -180 -182 0
5 -1 -18 183 184 0
5 -1 -18 183 -184 0
5 -1 -18 -183 185 0
5 -1 -18 -183 -185 0
5 -14 -13 186 187 0
5 -14 -13 186 -187 0
5 -14 -13 -186 188 0
5 -14 -13 -186 -188 0
10 1 4 189 190 0
10 1 4 189 -190 0
10 1 4 -189 191 0
10 1 4 -189 -191 0
-7 16 -13 192 193 0
-7 16 -13 192 -193 0
-7 16 -13 -192 194 0
-7 16 -13 -192 -194 0
-10 -14 6 195 196 0
-10 -14 6 195 -196 0
-10 -14 6 -195 197 0
-10 -14 6 -195 -197 0
5 3 -6 198 199 0
5 3 -6 198 -199 0
5 3 -6 -198 200 0
5 3 -6 -198 -200 0
17 8 10 201 202 0
17 8 10 201 -202 0
17 8 10 -201 203 0
17 8 10 -201 -203 0
20 19 -8 204 205 0
20 19 -8 204 -205 0
20 19 -8 -204 206 0
20 19 -8 -204 -206 0
9 -10 1 207 208 0
9 -10 1 207 -208 0
9 -10 1 -207 209 0
9 -10 1 -207 -209 0
-18 13 -6 210 211 0
-18 13 -6 210 -211 0
-18 13 -6 -210 212 0
-18 13 -6 -210 -212 0
-18 -13 -20 213 214 0
-18 -13 -20 213 -214 0
-18 -13 -20 -213 215 0
-18 -13 -20 -213 -215 0
-3 -4 5 216 217 0
-3 -4 5 216 -217 0
-3 -4 5 -216 218 0
-3 -4 5 -216 -218 0
-11 -19 -8 219 220 0
-11 -19 -8 219 -220 0
-11 -19 -8 -219 221 0
-11 -19 -8 -219 -221 0
1 3 -17 222 223 0
1 3 -17 222 -223 0
1 3 -17 -222 224 0
1 3 -17 -222 -224 0
-6 13 -4 225 226 0
-6 13 -4 225 -226 0
-6 13 -4 -225 227 0
-6 13 -4 -225 -227 0
-18 15 12 228 229 0
-18 15 12 228 -229 0
-18 15 12 -228 230 0
-18 15 12 -228 -230 0
13 -10 17 231 232 0
13 -10 17 231 -232 0
13 -10 17 -231 233 0
13 -10 17 -231 -233 0
16 -19 10 234 235 0
16 -19 10 234 -235 0
16 -19 10 -234 236 0
16 -19 10 -234 -236 0
-9 -13 -3 237 238 0
-9 -13 -3 237 -238 0
-9 -13 -3 -237 239 0
-9 -13 -3 -237 -239 0
2 6 -4 240 241 0
2 6 -4 240 -241 0
2 6 -4 -240 242 0
2 6 -4 -240 -242 0
-19 -2 -10 243 244 0
-19 -2 -10 243 -244 0
-19 -2 -10 -243 245 0
-19 -2 -10 -243 -245 0
7 4 5 246 247 0
7 4 5 246 -247 0
7 4 5 -246 248 0
7 4 5 -246 -248 0
-6 -4 -3 249 250 0
-6 -4 -3 249 -250 0
-6 -4 -3 -249 251 0
-6 -4 -3 -249 -251 0
1 -19 -6 252 253 0
1 -19 -6 252 -253 0
1 -19 -6 -252 254 0
1 -19 -6 -252 -254 0
3 -18 -4 255 256 0
3 -18 -4 255 -256 0
3 -18 -4 -255 257 0
3 -18 -4 -255 -257 0
-4 -17 13 258 259 0
-4 -17 13 258 -259 0
-4 -17 13 -258 260 0
-4 -17 13 -258 -260 0
-10 19 -8 261 262 0
-10 19 -8 261 -262 0
-10 19 -8 -261 263 0
-10 19 -8 -261 -263 0
-18 8 20 264 265 0
-18 8 20 264 -265 0
-18 8 20 -264 266 0
-18 8 20 -264 -266 0
-12 3 9 267 268 0
-12 3 9 267 -268 0
-12 3 9 -267 269 0
-12 3 9 -267 -269 0
-15 -8 2 270 271 0
-15 -8 2 270 -271 0
-15 -8 2 -270 272 0
-15 -8 2 -270 -272 0
-9 17 1 273 274 0
-9 17 1 273 -274 0
-9 17 1 -273 275 0
-9 17 1 -273 -275 0
-20 7 13 276 277 0
-20 7 13 276 -277 0
-20 7 13 -276 278 0
-20 7 13 -276 -278 0
11 -17 -8 279 280 0
11 -17 -8 279 -280 0
11 -17 -8 -279 281 0
11 -17 -8 -279 -281 0
-2 1 -6 282 283 0
-2 1 -6 282 -283 0
-2 1 -6 -282 284 0
-2 1 -6 -282 -284 0
-14 12 5 285 286 0
-14 12 5 285 -286 0
-14 12 5 -285 287 0
-14 12 5 -285 -287 0
-9 1 -13 288 289 0
-9 1 -13 288 -289 0
-9 1 -13 -288 290 0
-9 1 -13 -288 -290 0
5 -18 14 291 292 0
5 -18 14 291 -292 0
5 -18 14 -291 293 0
5 -18 14 -291 -293 0
294 295 297 301 309 0
294 295 297 301 -309 0
294 295 297 -301 310 0
294 295 297 -301 -310 0
294 295 -297 302 311 0
294 295 -297 302 -311 0
294 295 -297 -302 312 0
294 295 -297 -302 -312 0
294 -295 298 303 313 0
294 -295 298 303 -313 0
294 -295 298 -303 314 0
294 -295 298 -303 -314 0
294 -295 -298 304 315 0
294 -295 -298 304 -315 0
294 -295 -298 -304 316 0
294 -295 -298 -304 -316 0
-294 296 299 305 317 0
-294 296 299 305 -317 0
-294 296 299 -305 318 0
-294 296 299 -305 -318 0
-294 296 -299 306 319 0
-294 296 -299 306 -319 0
-294 296 -299 -306 320 0
-294 296 -299 -306 -320 0
-294 -296 300 307 321 0
-294 -296 300 307 -321 0
-294 -296 300 -307 322 0
-294 -296 300 -307 -322 0
-294 -296 -300 308 323 0
-294 -296 -300 308 -323 0
-294 -296 -300 -308 324 0
-294 -296 -300 -308 -324 0
325 326 328 332 340 0
325 326 328 332 -340 0
325 326 328 -332 341 0
325 326 328 -332 -341 0
325 326 -328 333 342 0
325 326 -328 333 -342 0
325 326 -328 -333 343 0
325 326 -328 -333 -343 0
325 -326 329 334 344 0
325 -326 329 334 -344 0
325 -326 329 -334 345 0
325 -326 329 -334 -345 0
325 -326 -329 335 346 0
325 -326 -329 335 -346 0
325 -326 -329 -335 347 0
325 -326 -329 -335 -347 0
-325 327 330 336 348 0
-325 327 330 336 -348 0
-325 327 330 -336 349 0
-325 327 330 -336 -349 0
-325 327 -330 337 350 0
-325 327 -330 337 -350 0
-325 327 -330 -337 351 0
-325 327 -330 -337 -351 0
-325 -327 331 338 352 0
-325 -327 331 338 -352 0
-325 -327 331 -338 353 0
-325 -327 331 -338 -353 0
-325 -327 -331 339 354 0
-325 -327 -331 339 -354 0
-325 -327 -331 -339 355 0
-325 -327 -331 -339 -355 0
356 357 359 363 371 0
356 357 359 363 -371 0
356 357 359 -363 372 0
356 357 359 -363 -372 0
356 357 -359 364 373 0
356 357 -359 364 -373 0
356 357 -359 -364 374 0
356 357 -359 -364 -374 0
356 -357 360 365 375 0
356 -357 360 365 -375 0
356 -357 360 -365 376 0
356 -357 360 -365 -376 0
356 -357 -360 366 377 0
356 -357 -360 366 -377 0
356 -357 -360 -366 378 0
356 -357 -360 -366 -378 0
-356 358 361 367 379 0
-356 358 361 367 -379 0
-356 358 361 -367 380 0
-356 358 361 -367 -380 0
-356 358 -361 368 381 0
-356 358 -361 368 -381 0
-356 358 -361 -368 382 0
-356 358 -361 -368 -382 0
-356 -358 362 369 383 0
-356 -358 362 369 -383 0
-356 -358 362 -369 384 0
-356 -358 362 -369 -384 0
-356 -358 -362 370 385 0
-356 -358 -362 370 -385 0
-356 -358 -362 -370 386 0
-356 -358 -362 -370 -386 0

